(declare-fun temp759_1 () (_ BitVec 64))
(declare-fun var135910 () (_ BitVec 64))
(declare-fun temp759_2 () (_ BitVec 64))
(declare-fun var394978 () (_ BitVec 64))
(declare-fun temp759_3 () (_ BitVec 64))
(declare-fun temp759_4 () (_ BitVec 64))
(declare-fun var1183786 () (_ BitVec 64))
(declare-fun k!0 () Bool)
(declare-fun ARGNAME_input_NAMEEND_DIM () (_ BitVec 64))
(declare-fun temp759_5 () (_ BitVec 64))
(declare-fun var1183812 () (_ BitVec 64))
(declare-fun temp759_6 () (_ BitVec 64))
(declare-fun var1379631 () (_ BitVec 64))
(declare-fun temp759_7 () (_ BitVec 64))
(declare-fun var1511075 () (_ BitVec 64))
(declare-fun temp759_8 () (_ BitVec 64))
(declare-fun var3353914 () (_ BitVec 64))
(declare-fun var3614777 () (_ BitVec 64))
(declare-fun var4073628 () (_ BitVec 64))
(declare-fun var4204769 () (_ BitVec 64))
(assert (= temp759_1 #x0000000000000001))
(assert (= var135910 temp759_1))
(assert (= temp759_2 #x0000000000000000))
(assert (= var394978 temp759_2))
(assert (= temp759_3 #x0000000000000040))
(assert (= var1183786
   (ite (bvsgt ARGNAME_input_NAMEEND_DIM temp759_3)
        #x0000000000000001
        #x0000000000000000)))
(assert (= temp759_4 #x0000000000000000))
(assert (= var1183786 temp759_4))
(assert (= temp759_5 #x0000000000000000))
(assert (= var1183812
   (ite (bvsgt ARGNAME_input_NAMEEND_DIM temp759_5)
        #x0000000000000001
        #x0000000000000000)))
(assert (= temp759_6 #x0000000000000000))
(assert (= var1183812 temp759_6))
(assert (= var1379631 var394978))
(assert (= temp759_7 #x0000000000000005))
(assert (= var1511075 temp759_7))
(assert (= temp759_8 #x0000000000000000))
(assert (= var3353914 temp759_8))
(assert (= var3614777 var3353914))
(assert (= var4073628 var3614777))
(assert (= var4204769 var4073628))
(model-add temp759_1 () (_ BitVec 64) #x0000000000000001)
(model-add var135910 () (_ BitVec 64) #x0000000000000001)
(model-add temp759_2 () (_ BitVec 64) #x0000000000000000)
(model-add var394978 () (_ BitVec 64) #x0000000000000000)
(model-add temp759_3 () (_ BitVec 64) #x0000000000000040)
(model-add temp759_4 () (_ BitVec 64) #x0000000000000000)
(model-add var1183786 () (_ BitVec 64) #x0000000000000000)
(model-del k!0)
(model-add ARGNAME_input_NAMEEND_DIM
           ()
           (_ BitVec 64)
           (ite (or k!0 (= #x0000000000000040 #x7fffffffffffffff))
                #x0000000000000040
                (bvadd #x0000000000000040 #x0000000000000001)))






